commons/LK_FILES/TIC01-10-10-3.tsp
NAME: TIC01-10-10-3
TYPE: TSP
COMMENT: TSP
DIMENSION: 7
EDGE_WEIGHT_TYPE: EXPLICIT
EDGE_WEIGHT_FORMAT: FULL_MATRIX
EDGE_WEIGHT_SECTION
0 353 103 249 170 433 115 
353 0 282 109 349 150 500 
103 282 0 387 186 130 63 
249 109 387 0 366 104 425 
170 349 186 366 0 373 132 
433 150 130 104 373 0 254 
115 500 63 425 132 254 0 
EOF
