commons/LK_FILES/TIC01-10-10-3.tour
NAME : TIC01-10-10-3.1003.tour
COMMENT : Length = 1003
COMMENT : Found by LKH [Keld Helsgaun] Thu Dec 15 16:56:30 2016
TYPE : TOUR
DIMENSION : 7
TOUR_SECTION
1
4
2
6
3
7
5
-1
EOF
